20 10
56 42 28 41 39 62 94 34 93 44
4 22 3 49 189 84 51 61 41 59
28 50 64 38 81 46 241 63 21 150
63 61 91 30 32 1 8 20 78 95
20 22 21 82 43 30 97 29 3 30
6 2 1 1 22 224 16 29 4 151
16 77 17 23 51 121 102 52 21 2
107 4 29 68 13 46 11 9 31 127
13 85 47 19 22 43 1 61 102 58
71 164 34 96 349 22 7 39 105 56
28 3 42 41 82 8 4 15 53 20
194 13 53 18 150 44 10 13 107 58
35 48 57 12 77 31 35 52 27 33
32 31 4 55 33 95 20 21 61 31
28 37 77 18 15 8 5 2 5 52
99 37 25 43 53 137 71 147 33 23
17 51 25 225 70 19 92 26 18 70
28 27 8 78 35 23 2 74 3 49
70 80 21 19 11 22 23 17 20 5
47 69 26 63 27 5 55 19 38 26
